Version identifier: 22.1.1.0 | 2022-11-28 | 9160aff4d
CPXPARAM_Read_DataCheck                          1
CPXPARAM_MIP_Cuts_Covers                         1
CPXPARAM_MIP_Strategy_NodeSelect                 2
CPXPARAM_MIP_Cuts_FlowCovers                     1
CPXPARAM_MIP_Cuts_MIRCut                         1
CPXPARAM_MIP_Strategy_HeuristicFreq              5
CPXPARAM_TimeLimit                               388
Tried aggregator 1 time.
MIP Presolve eliminated 1 rows and 0 columns.
MIP Presolve added 2 rows and 0 columns.
MIP Presolve modified 20054 coefficients.
Reduced MIP has 5959 rows, 8915 columns, and 48354 nonzeros.
Reduced MIP has 8841 binaries, 0 generals, 0 SOSs, and 0 indicators.
Presolve time = 0.02 sec. (31.99 ticks)
Probing time = 0.01 sec. (6.00 ticks)
Tried aggregator 1 time.
Detecting symmetries...
Reduced MIP has 5959 rows, 8915 columns, and 48354 nonzeros.
Reduced MIP has 8841 binaries, 0 generals, 0 SOSs, and 0 indicators.
Presolve time = 0.02 sec. (26.35 ticks)
Probing time = 0.01 sec. (5.61 ticks)
Clique table members: 28734.
MIP emphasis: balance optimality and feasibility.
MIP search method: dynamic search.
Parallel mode: deterministic, using up to 12 threads.
Root relaxation solution time = 0.15 sec. (88.78 ticks)

        Nodes                                         Cuts/
   Node  Left     Objective  IInf  Best Integer    Best Bound    ItCnt     Gap

      0     0      763.5811   126                    763.5811     1449         
      0     0      874.3480   133                   Cuts: 125     1804         
      0     0      893.5271    38                   Cuts: 346     1995         
      0     0      893.5271    42                    Cuts: 33     2058         
*     0+    0                        22931.0000      893.5271            96.10%
*     0+    0                        13406.0000      893.5271            93.33%
      0     0      893.5271    40    13406.0000      Cuts: 11     2070   93.33%
*     0+    0                         4282.0000      893.5271            79.13%
*     0+    0                         2869.0000      893.5271            68.86%
      0     0  -1.00000e+75     0     2869.0000      893.5271     2070   68.86%
*     0+    0                         2742.0000      893.5271            67.41%
*     0+    0                         2216.0000      893.5271            59.68%
*     0+    0                         2089.0000      893.5271            57.23%
*     0+    0                         2085.0000      893.5271            57.14%
*     0+    0                         1840.0000      893.5271            51.44%
*     0+    0                         1371.0000      893.5271            34.83%
*     0+    0                         1345.0000      893.5271            33.57%
      0     0  -1.00000e+75     0     1345.0000      893.5271     2070   33.57%
Detecting symmetries...
      0     2      893.5271    38     1345.0000      893.5271     2070   33.57%
Elapsed time = 2.29 sec. (2242.88 ticks, tree = 0.02 MB, solutions = 11)
     17    13      908.0135    99     1345.0000      893.5271     3613   33.57%
*    36+    8                         1319.0000      893.5271            32.26%
*    52+   11                         1316.0000      893.5271            32.10%
     55    32      909.3333   106     1316.0000      893.5271     7937   32.10%
*    70+   11                         1253.0000      893.5271            28.69%
    101    82      896.3636    67     1253.0000      893.5271    12246   28.69%
    166   134      914.4770   117     1253.0000      893.5271    18959   28.69%
    253   231      916.5272    56     1253.0000      893.5271    23081   28.69%
    353   277      910.5714   112     1253.0000      893.5271    28582   28.69%
    559   423      912.1816    46     1253.0000      893.5271    38909   28.69%
*   574+  376                         1237.0000      893.5271            27.77%
*   589+  512                         1110.0000      893.5271            19.50%
*   596+  512                         1038.0000      893.5271            13.92%
    723   575      919.1568    51     1038.0000      893.5271    44757   13.92%
*   760   689      integral     0      971.0000      893.5271    50438    7.98%
    904   743      925.8457    95      971.0000      893.5271    55253    7.98%
*  1291   980      integral     0      927.0000      893.5271    71942    3.61%
   1550   758      908.7500    91      927.0000      893.5271    81296    3.61%
Elapsed time = 6.70 sec. (5372.34 ticks, tree = 22.57 MB, solutions = 19)
   2922  1777    infeasible            927.0000      893.5271   119023    3.61%
   4072  2555      920.5286    79      927.0000      893.5271   148345    3.61%

Performing restart 1

Repeating presolve.
Tried aggregator 2 times.
MIP Presolve eliminated 4779 rows and 5010 columns.
MIP Presolve added 6 rows and 0 columns.
MIP Presolve modified 684 coefficients.
Aggregator did 3 substitutions.
Reduced MIP has 1183 rows, 3902 columns, and 14237 nonzeros.
Reduced MIP has 3828 binaries, 0 generals, 0 SOSs, and 0 indicators.
Presolve time = 0.02 sec. (21.14 ticks)
Tried aggregator 1 time.
MIP Presolve modified 16 coefficients.
Reduced MIP has 1183 rows, 3902 columns, and 14235 nonzeros.
Reduced MIP has 3828 binaries, 0 generals, 0 SOSs, and 0 indicators.
Presolve time = 0.01 sec. (9.57 ticks)
Represolve time = 0.06 sec. (68.38 ticks)
   4109     0      895.8184   119      927.0000      Cuts: 26   158659    3.36%
   4109     0      897.5911   159      927.0000      Cuts: 86   158851    3.17%
   4109     0      898.3768   105      927.0000     Cuts: 107   159079    2.95%
   4109     0      899.6584   138      927.0000      Cuts: 68   159253    2.95%
   4109     0      900.2823   138      927.0000      Cuts: 94   159378    2.88%
   4109     0      900.7440   107      927.0000     Cuts: 118   159547    2.83%
   4109     0      900.8519   132      927.0000      Cuts: 82   159677    2.82%
   4109     0      900.8887    74      927.0000      Cuts: 70   159778    2.82%
   4109     0      901.1246   139      927.0000     Cuts: 111   159930    2.79%
   4109     0      901.2415   142      927.0000     Cuts: 103   160171    2.78%
   4109     0      901.2415   141      927.0000      Cuts: 70   160216    2.78%
   4109     0      901.2415   144      927.0000      Cuts: 30   160308    2.78%
   4109     0      901.2415   145      927.0000     Cuts: 115   160433    2.78%
   4109     0      901.2415   146      927.0000      Cuts: 60   160494    2.78%
   4109     2      901.2415   136      927.0000      901.2415   160494    2.78%
   4154    23      916.6164    91      927.0000      902.6620   164177    2.63%
*  5237   589      integral     0      906.0000      903.1750   196659    0.31%

GUB cover cuts applied:  34
Clique cuts applied:  1
Cover cuts applied:  22
Implied bound cuts applied:  14
Flow cuts applied:  4
Mixed integer rounding cuts applied:  101
Zero-half cuts applied:  26
Lift and project cuts applied:  11
Gomory fractional cuts applied:  23

Root node processing (before b&c):
  Real time             =    2.27 sec. (2227.84 ticks)
Parallel b&c, 12 threads:
  Real time             =   12.07 sec. (10116.84 ticks)
  Sync time (average)   =    2.24 sec.
  Wait time (average)   =    0.01 sec.
                          ------------
Total (root+branch&cut) =   14.34 sec. (12344.68 ticks)
